c Generated by SAT Solver
p cnf 2003 218
101 102 103 0
201 202 203 0
301 302 303 0
401 402 403 0
501 502 503 0
601 602 603 0
701 702 703 0
801 802 803 0
901 902 903 0
1001 1002 1003 0
1101 1102 1103 0
1201 1202 1203 0
1301 1302 1303 0
1401 1402 1403 0
1501 1502 1503 0
1601 1602 1603 0
1701 1702 1703 0
1801 1802 1803 0
1901 1902 1903 0
2001 2002 2003 0
-101 -102 0
-101 -103 0
-102 -103 0
-201 -202 0
-201 -203 0
-202 -203 0
-301 -302 0
-301 -303 0
-302 -303 0
-401 -402 0
-401 -403 0
-402 -403 0
-501 -502 0
-501 -503 0
-502 -503 0
-601 -602 0
-601 -603 0
-602 -603 0
-701 -702 0
-701 -703 0
-702 -703 0
-801 -802 0
-801 -803 0
-802 -803 0
-901 -902 0
-901 -903 0
-902 -903 0
-1001 -1002 0
-1001 -1003 0
-1002 -1003 0
-1101 -1102 0
-1101 -1103 0
-1102 -1103 0
-1201 -1202 0
-1201 -1203 0
-1202 -1203 0
-1301 -1302 0
-1301 -1303 0
-1302 -1303 0
-1401 -1402 0
-1401 -1403 0
-1402 -1403 0
-1501 -1502 0
-1501 -1503 0
-1502 -1503 0
-1601 -1602 0
-1601 -1603 0
-1602 -1603 0
-1701 -1702 0
-1701 -1703 0
-1702 -1703 0
-1801 -1802 0
-1801 -1803 0
-1802 -1803 0
-1901 -1902 0
-1901 -1903 0
-1902 -1903 0
-2001 -2002 0
-2001 -2003 0
-2002 -2003 0
-101 -201 0
-102 -202 0
-103 -203 0
-101 -301 0
-102 -302 0
-103 -303 0
-101 -801 0
-102 -802 0
-103 -803 0
-101 -1101 0
-102 -1102 0
-103 -1103 0
-101 -1201 0
-102 -1202 0
-103 -1203 0
-101 -1301 0
-102 -1302 0
-103 -1303 0
-101 -1501 0
-102 -1502 0
-103 -1503 0
-101 -2001 0
-102 -2002 0
-103 -2003 0
-201 -1601 0
-202 -1602 0
-203 -1603 0
-301 -501 0
-302 -502 0
-303 -503 0
-301 -601 0
-302 -602 0
-303 -603 0
-301 -1301 0
-302 -1302 0
-303 -1303 0
-301 -1501 0
-302 -1502 0
-303 -1503 0
-301 -1901 0
-302 -1902 0
-303 -1903 0
-401 -1401 0
-402 -1402 0
-403 -1403 0
-401 -1501 0
-402 -1502 0
-403 -1503 0
-401 -1601 0
-402 -1602 0
-403 -1603 0
-401 -1701 0
-402 -1702 0
-403 -1703 0
-401 -1901 0
-402 -1902 0
-403 -1903 0
-401 -2001 0
-402 -2002 0
-403 -2003 0
-501 -901 0
-502 -902 0
-503 -903 0
-501 -1201 0
-502 -1202 0
-503 -1203 0
-501 -1301 0
-502 -1302 0
-503 -1303 0
-501 -1601 0
-502 -1602 0
-503 -1603 0
-501 -2001 0
-502 -2002 0
-503 -2003 0
-601 -901 0
-602 -902 0
-603 -903 0
-601 -1401 0
-602 -1402 0
-603 -1403 0
-601 -1901 0
-602 -1902 0
-603 -1903 0
-601 -2001 0
-602 -2002 0
-603 -2003 0
-701 -801 0
-702 -802 0
-703 -803 0
-701 -1401 0
-702 -1402 0
-703 -1403 0
-701 -1701 0
-702 -1702 0
-703 -1703 0
-701 -1801 0
-702 -1802 0
-703 -1803 0
-801 -901 0
-802 -902 0
-803 -903 0
-801 -1601 0
-802 -1602 0
-803 -1603 0
-801 -2001 0
-802 -2002 0
-803 -2003 0
-901 -1001 0
-902 -1002 0
-903 -1003 0
-901 -1101 0
-902 -1102 0
-903 -1103 0
-901 -1301 0
-902 -1302 0
-903 -1303 0
-901 -1501 0
-902 -1502 0
-903 -1503 0
-1101 -1701 0
-1102 -1702 0
-1103 -1703 0
-1101 -1901 0
-1102 -1902 0
-1103 -1903 0
-1401 -1901 0
-1402 -1902 0
-1403 -1903 0
-1501 -2001 0
-1502 -2002 0
-1503 -2003 0
-1601 -1901 0
-1602 -1902 0
-1603 -1903 0
-1701 -2001 0
-1702 -2002 0
-1703 -2003 0
